130
0 112 19 106 86 96 127 111 124 67 
15 80 88 60 48 78 75 8 101 120 
129 43 74 95 62 73 13 2 97 117 
81 63 20 47 25 107 46 126 4 9 
105 90 82 36 39 38 102 14 29 70 
118 11 76 37 33 49 53 61 44 57 
26 98 56 92 50 16 10 35 123 87 
125 40 55 22 114 65 34 108 104 23 
17 116 51 58 6 5 28 54 32 27 
1 89 18 30 21 119 85 100 3 42 
122 64 84 59 77 7 109 52 83 128 
41 113 93 115 31 66 99 71 24 68 
72 12 110 91 69 45 79 103 121 94 
